Copyright (C) 2013-2015, Filipe Brandao
Build (method = -2)
  #dp: 2995
  Step-3' Graph: 112 vertices and 1227 arcs (0.00s)
  Step-4' Graph: 84 vertices and 1171 arcs (0.00s)
  #V4/#V3 = 0.75
  #A4/#A3 = 0.95
Ready! (0.00s)
Optimize a model with 167 rows, 1172 columns and 3352 nonzeros
Found heuristic solution: objective 71
Presolve removed 52 rows and 63 columns
Presolve time: 0.01s
Presolved: 115 rows, 1109 columns, 2972 nonzeros
Variable types: 0 continuous, 1109 integer (842 binary)
Optimize a model with 115 rows, 1109 columns and 2972 nonzeros
Presolved: 115 rows, 1109 columns, 2972 nonzeros

Root barrier log...

Ordering time: 0.00s

Barrier statistics:
 AA' NZ     : 1.590e+03
 Factor NZ  : 3.651e+03
 Factor Ops : 1.444e+05 (less than 1 second per iteration)
 Threads    : 1

                  Objective                Residual
Iter       Primal          Dual         Primal    Dual     Compl     Time
   0   1.15206374e+03 -4.22127751e+03  4.44e+03 1.68e-01  1.31e+01     0s
   1   3.22415323e+02 -1.09493474e+03  5.48e+02 1.11e-15  1.87e+00     0s
   2   1.11240697e+02 -1.96054324e+02  4.98e+01 9.44e-16  2.33e-01     0s
   3   7.13131775e+01  3.99252325e+00  3.83e+00 5.55e-16  3.56e-02     0s
   4   6.33947394e+01  3.74401907e+01  1.02e+00 6.00e-16  1.25e-02     0s
   5   6.03971024e+01  4.25998363e+01  6.11e-01 6.09e-16  8.47e-03     0s
   6   5.75461073e+01  4.89218926e+01  2.92e-01 6.02e-16  4.09e-03     0s
   7   5.54379891e+01  5.41010209e+01  7.47e-02 4.39e-16  6.54e-04     0s
   8   5.50010238e+01  5.49965990e+01  2.66e-05 3.66e-16  2.01e-06     0s
   9   5.50000000e+01  5.50000000e+01  2.94e-11 3.76e-16  2.19e-12     0s

Barrier solved model in 9 iterations and 0.01 seconds
Optimal objective 5.50000000e+01


Root relaxation: objective 5.500000e+01, 552 iterations, 0.01 seconds

    Nodes    |    Current Node    |     Objective Bounds      |     Work
 Expl Unexpl |  Obj  Depth IntInf | Incumbent    BestBd   Gap | It/Node Time

*    0     0               0      55.0000000   55.00000  0.00%     -    0s

Explored 0 nodes (552 simplex iterations) in 0.02 seconds
Thread count was 1 (of 4 available processors)

Optimal solution found (tolerance 0.00e+00)
Best objective 5.500000000000e+01, best bound 5.500000000000e+01, gap 0.0%
Preprocessing time: 0.00 seconds
Gurobi run time: 0.02 seconds
Total run time: 0.02 seconds
Objective: 55
Solution:
1 x [i=1, i=82]
1 x [i=2, i=83]
1 x [i=3, i=79]
1 x [i=4, i=78]
2 x [i=5]
1 x [i=6, i=75]
2 x [i=7]
1 x [i=8, i=74]
1 x [i=9, i=75]
1 x [i=10, i=76]
1 x [i=11, i=77]
1 x [i=12, i=68]
1 x [i=13, i=69]
1 x [i=14, i=80]
1 x [i=15, i=80]
1 x [i=16, i=80]
1 x [i=17, i=81]
2 x [i=18]
1 x [i=19, i=66]
2 x [i=20]
2 x [i=21]
1 x [i=22, i=63]
1 x [i=23, i=62]
1 x [i=24, i=59]
1 x [i=25, i=63]
2 x [i=26, i=60]
1 x [i=27, i=64]
1 x [i=28, i=81]
1 x [i=29, i=71]
1 x [i=30, i=57]
1 x [i=31, i=58]
1 x [i=31, i=73]
1 x [i=32, i=70]
1 x [i=33, i=56]
1 x [i=34, i=72]
1 x [i=35, i=55]
1 x [i=36, i=54]
1 x [i=37, i=51]
1 x [i=38, i=50]
1 x [i=38, i=67]
1 x [i=39, i=62]
1 x [i=40, i=52]
1 x [i=40, i=65]
1 x [i=41, i=49]
1 x [i=42, i=61]
1 x [i=43, i=53]
1 x [i=44, i=46]
1 x [i=45, i=47]
1 x [i=45, i=48]
